c turning on binary mode checking
c parsing input formula with 259840 variables and 1039934 clauses
c finished parsing, read 3171619 bytes from proof file
c detected empty clause; start verification via backward checking
c 7886 of 1039934 clauses in core                            
c 2343 of 123443 lemmas in core using 53174 resolution steps
c 0 RAT lemmas in core; 238 redundant literals in core lemmas
s VERIFIED
c verification time: 1.404 seconds
